30 93
92 49
10 156
5 179
16 6
1 19
5 18
21 137
1 13
12 67
2 47
81 28
73 41
1 134
55 54
3 59
8 65
28 68
10 115
22 145
23 56
53 44
90 39
61 92
86 51
25 100
15 24
49 11
1 31
9 33
69 59
90 29
100 15
5 77
2 153
82 40
56 67
27 54
26 78
12 63
14 22
19 139
31 3
35 8
7 51
22 40
65 2
64 86
21 109
92 8
